Project2/diffeq.asapalap_equations.lp
min: a1 + a2;
c1: X11 = 1;
c2: X21 = 1;
c3: X31 + X32= 1;
c4: X42 = 1;
c5: X52 + X53= 1;
c6: X61 + X62 + X63= 1;
c7: X72 + X73 + X74= 1;
c8: X82 + X83 + X84= 1;
c9: X93 = 1;
c10: X104 = 1;
c11: X15 = 1;

c12: X11 + X21 + X31 + X61 - a1 <= 0;
c13: X32 + X42 + X52 + X62 - a1 <= 0;
c14: X53 + X63 - a1 <= 0;

c15: X72 + X82 - a2 <= 0;
c16: X73 + X83 + X93 - a2 <= 0;
c17: X74 + X84 + X104 - a2 <= 0;

int a1, a2, X31, X32, X52, X53, X61, X62, X63, X72, X73, X74, X82, X83, X84;
