Project2/diffeq.asapalap_equations.lp.output

Value of objective function: 4

Actual values of the variables:
a1                              2
a2                              2
X11                             1
X21                             1
X31                             0
X32                             1
X42                             1
X52                             0
X53                             1
X61                             0
X62                             0
X63                             1
X72                             0
X73                             0
X74                             1
X82                             1
X83                             0
X84                             0
X93                             1
X104                            1
X15                             1
